16,8	0,0	11,3	16,5	0,0	0,0	0,0	0,0	0,0	9,4
8,8	10,0	0,0	13,9	14,1	0,0	0,0	15,9	0,0	0,0
0,0	0,0	13,6	0,0	19,1	17,7	0,0	0,0	17,7	0,0
12,7	0,0	11,7	0,0	0,0	0,0	16,0	0,0	0,0	0,0
0,0	5,6	0,0	16,4	17,7	0,0	0,0	9,9	0,0	0,0
0,0	6,7	5,2	0,0	6,1	18,6	0,0	0,0	17,0	0,0
0,0	15,4	0,0	8,1	0,0	0,0	7,0	0,0	0,0	19,5
8,1	0,0	15,0	0,0	0,0	0,0	0,0	0,0	0,0	11,2
0,0	13,2	0,0	12,5	10,8	0,0	0,0	10,9	0,0	0,0
0,0	0,0	5,9	0,0	0,0	13,7	15,3	0,0	0,0	18,2
									
4,8	3,0	4,4	3,1	5,0	2,8	3,3	4,9	3,8	3,0
